; benchmark generated from python API
(set-info :status unknown)
(declare-datatypes ((RealState 0)) (((RMk1 (rval1 Real)) (RMk2 (rval2 Real)))))
 (assert
 (forall ((|v17:0| Real) )(forall ((|v16:1| Real) )(forall ((|v15:2| Real) )(forall ((|v14:3| Real) )(forall ((|v13:4| Real) )(forall ((|v12:5| Real) )(exists ((|v11:6_st| RealState) (val!10248 Real) )(exists ((|v10:7_st| RealState) (val!10249 Real) )(exists ((|v9:8_st| RealState) (val!10250 Real) )(exists ((|v8:9_st| RealState) (val!10251 Real) )(exists ((|v7:10_st| RealState) (val!10252 Real) )(exists ((|v6:11_st| RealState) (val!10253 Real) )(forall ((|v5:12| Real) )(forall ((|v4:13| Real) )(forall ((|v3:14| Real) )(forall ((|v2:15| Real) )(forall ((|v1:16| Real) )(forall ((|v0:17| Real) )(let ((?x7122 (- 17.0)))
 (let ((?x7585 (* ?x7122 |v4:13|)))
 (let ((?x5679 (rval2 |v9:8_st|)))
 (let ((?x9179 (- 9.0)))
 (let ((?x4825 (* ?x9179 ?x5679)))
 (let ((?x1079 (* 5.0 |v12:5|)))
 (let ((?x6331 (+ (+ (+ (* (- 8.0) |v0:17|) (* 16.0 |v14:3|)) (* (- 12.0) |v16:1|)) (* 3.0 |v16:1|))))
 (let ((?x6059 (- 2.0)))
 (let ((?x327 (* 11.0 |v15:2|)))
 (let ((?x9214 (rval2 |v8:9_st|)))
 (let ((?x9116 (* 4.0 ?x9214)))
 (let ((?x4185 (* 2.0 |v16:1|)))
 (let ((?x5537 (- 1.0)))
 (let ((?x5242 (* ?x5537 ?x9214)))
 (let ((?x2372 (+ (+ (+ (* (- 15.0) |v3:14|) (* 17.0 |v17:0|)) (* 13.0 |v16:1|)) ?x5242)))
 (let ((?x3237 (- 14.0)))
 (let ((?x9308 (- 7.0)))
 (let ((?x1603 (* ?x9308 |v3:14|)))
 (let ((?x6156 (- 18.0)))
 (let ((?x3610 (* ?x6156 |v4:13|)))
 (let ((?x4856 (rval2 |v11:6_st|)))
 (let ((?x8124 (* 9.0 ?x4856)))
 (let ((?x6127 (* 19.0 |v3:14|)))
 (let ((?x2236 (+ (+ (+ (* 7.0 (rval2 |v10:7_st|)) (* (- 11.0) (rval2 |v6:11_st|))) ?x6127) ?x8124)))
 (let (($x2403 (and (<= (+ (+ (+ ?x2236 ?x3610) ?x1603) (* (- 11.0) |v15:2|)) ?x3237) (<= (+ (+ (+ ?x2372 ?x4185) ?x9116) ?x327) ?x6059))))
 (let ((?x286 (- 19.0)))
 (let ((?x3812 (- 15.0)))
 (let ((?x3132 (* ?x3812 |v5:12|)))
 (let ((?x3312 (- 13.0)))
 (let ((?x7092 (* ?x3312 ?x5679)))
 (let ((?x6114 (* 4.0 |v0:17|)))
 (let ((?x5826 (+ (+ (+ (* (- 6.0) |v5:12|) (* 15.0 |v12:5|)) (* (- 12.0) |v15:2|)) ?x6114)))
 (let ((?x7410 (- 8.0)))
 (let ((?x5360 (* ?x7410 |v0:17|)))
 (let ((?x7540 (* 6.0 |v5:12|)))
 (let ((?x3669 (rval2 |v10:7_st|)))
 (let ((?x1882 (* 18.0 ?x3669)))
 (let ((?x5335 (* 16.0 |v0:17|)))
 (let ((?x1770 (+ (+ (+ (+ (+ |v5:12| (* (- 5.0) |v13:4|)) (* 9.0 ?x3669)) ?x5335) ?x1882) ?x7540)))
 (let (($x4937 (and (<= (+ ?x1770 ?x5360) 10.0) (<= (+ (+ (+ ?x5826 ?x7092) (* ?x286 |v14:3|)) ?x3132) ?x286))))
 (let ((?x324 (* 15.0 |v4:13|)))
 (let ((?x598 (+ (+ (+ (* ?x9308 |v16:1|) (* (- 3.0) |v2:15|)) (* 17.0 |v3:14|)) (* (- 6.0) |v13:4|))))
 (let ((?x1876 (* ?x286 ?x5679)))
 (let ((?x3137 (* 16.0 |v14:3|)))
 (let ((?x5553 (* ?x5537 |v13:4|)))
 (let ((?x439 (rval2 |v6:11_st|)))
 (let ((?x6454 (* ?x9179 ?x439)))
 (let ((?x8770 (+ (+ (+ (+ (* ?x7410 |v14:3|) (* 11.0 ?x3669)) (* 2.0 ?x3669)) ?x6454) ?x5553)))
 (let (($x4844 (or (<= (+ (+ ?x8770 ?x3137) ?x1876) ?x5537) (<= (+ (+ (+ ?x598 (* ?x9179 |v16:1|)) (* 11.0 |v13:4|)) ?x324) ?x7410))))
 (let (($x7226 (and (and $x4844 $x4937) (and $x2403 (<= (+ (+ (+ ?x6331 ?x1079) ?x4825) ?x7585) 12.0)))))
 (let ((?x8355 (- 12.0)))
 (let ((?x3521 (* ?x8355 ?x439)))
 (let ((?x4592 (- 4.0)))
 (let ((?x6501 (* ?x4592 |v12:5|)))
 (let ((?x9410 (+ (+ (+ (* (- 16.0) |v12:5|) (* 11.0 |v0:17|)) (* 6.0 (rval2 |v7:10_st|))) (* ?x4592 ?x5679))))
 (let ((?x4902 (* 7.0 ?x439)))
 (let ((?x2701 (rval2 |v7:10_st|)))
 (let ((?x5622 (* ?x9308 ?x2701)))
 (let ((?x6160 (* ?x9179 |v17:0|)))
 (let ((?x1569 (+ (+ (+ (+ (* (- 11.0) ?x3669) (* 9.0 |v12:5|)) ?x9116) (* ?x3312 ?x439)) ?x6160)))
 (let (($x5398 (and (<= (+ (+ ?x1569 ?x5622) ?x4902) 18.0) (<= (+ (+ (+ ?x9410 ?x6501) ?x3521) ?x3137) 6.0))))
 (let ((?x7468 (- 11.0)))
 (let ((?x9566 (- 10.0)))
 (let ((?x6861 (* ?x9566 |v2:15|)))
 (let ((?x7246 (+ (+ (+ (+ (* 12.0 |v14:3|) ?x4902) (* ?x7410 ?x4856)) (* ?x7410 |v2:15|)) ?x9116)))
 (let ((?x8495 (* 20.0 |v1:16|)))
 (let ((?x3402 (* 15.0 |v5:12|)))
 (let ((?x4086 (* ?x5537 |v14:3|)))
 (let ((?x7316 (* 13.0 ?x3669)))
 (let ((?x8959 (+ (+ (+ (+ (* (- 20.0) |v15:2|) (* 14.0 |v16:1|)) (* ?x9566 |v1:16|)) ?x7316) ?x4086)))
 (let (($x446 (and (<= (+ (+ ?x8959 ?x3402) ?x8495) 16.0) (<= (+ (+ ?x7246 (* ?x8355 |v17:0|)) ?x6861) ?x7468))))
 (let ((?x1706 (* ?x7410 |v5:12|)))
 (let ((?x6733 (* 11.0 ?x2701)))
 (let ((?x9140 (+ (+ (+ (+ ?x6454 (* (- 16.0) |v15:2|)) (* 9.0 |v3:14|)) (* ?x5537 |v4:13|)) ?x6733)))
 (let ((?x587 (* 9.0 |v5:12|)))
 (let ((?x2442 (* 7.0 |v16:1|)))
 (let ((?x8134 (* 2.0 ?x5679)))
 (let ((?x5494 (+ (+ (+ (+ (* ?x6156 ?x4856) (* 19.0 |v17:0|)) (* 11.0 ?x439)) ?x8134) ?x2442)))
 (let (($x5505 (and (<= (+ (+ ?x5494 ?x5242) ?x587) 17.0) (<= (+ (+ ?x9140 ?x1706) (* (- 16.0) ?x439)) ?x8355))))
 (let ((?x2540 (- 20.0)))
 (let ((?x8653 (* ?x2540 |v1:16|)))
 (let ((?x4974 (* ?x3237 |v0:17|)))
 (let ((?x8343 (+ (+ (+ (+ (* 4.0 |v13:4|) (* 18.0 |v1:16|)) (* 14.0 |v3:14|)) ?x4974) (* 19.0 |v13:4|))))
 (let ((?x8857 (* 16.0 |v15:2|)))
 (let ((?x4229 (* 18.0 |v5:12|)))
 (let ((?x4585 (+ (+ (+ (+ (* (- 5.0) |v2:15|) (* ?x9566 |v14:3|)) (* 7.0 |v2:15|)) ?x4229) ?x4902)))
 (let (($x6514 (and (<= (+ (+ ?x4585 ?x8857) (* (- 5.0) |v16:1|)) ?x8355) (<= (+ (+ ?x8343 (* ?x3812 |v15:2|)) ?x8653) 16.0))))
 (let ((?x8509 (* ?x9308 |v5:12|)))
 (let ((?x6766 (* ?x7410 ?x9214)))
 (let ((?x5836 (+ (+ (+ (+ (* ?x3237 |v4:13|) (* 3.0 |v12:5|)) (* 13.0 ?x4856)) ?x6766) ?x2442)))
 (let ((?x9335 (* ?x7468 ?x3669)))
 (let ((?x1072 (* ?x3312 ?x439)))
 (let ((?x1116 (+ (+ (+ (+ (* 16.0 |v16:1|) (* (- 3.0) ?x3669)) ?x4825) |v13:4|) (* 6.0 |v17:0|))))
 (let (($x592 (or (<= (+ (+ ?x1116 ?x1072) ?x9335) 0.0) (<= (+ (+ ?x5836 (* 18.0 ?x9214)) ?x8509) 19.0))))
 (let ((?x8412 (* ?x7122 ?x439)))
 (let ((?x4107 (* ?x9308 ?x9214)))
 (let ((?x482 (* ?x7410 |v4:13|)))
 (let ((?x2556 (+ (+ (+ (+ (* (- 16.0) |v17:0|) (* ?x4592 |v5:12|)) (* ?x8355 ?x4856)) ?x482) ?x4107)))
 (let ((?x1803 (* 4.0 |v3:14|)))
 (let ((?x6831 (* ?x9179 |v1:16|)))
 (let ((?x8548 (* ?x6156 ?x4856)))
 (let ((?x721 (* ?x9566 ?x439)))
 (let ((?x2535 (+ (+ (+ (+ (* 2.0 ?x3669) (* (- 5.0) ?x2701)) (* ?x7468 ?x439)) ?x721) ?x8548)))
 (let (($x6691 (or (<= (+ (+ ?x2535 ?x6831) ?x1803) ?x8355) (<= (+ (+ ?x2556 ?x8412) (* ?x3312 |v16:1|)) ?x2540))))
 (let ((?x409 (* ?x3812 ?x4856)))
 (let ((?x1687 (- 5.0)))
 (let ((?x2196 (* ?x1687 ?x5679)))
 (let ((?x7010 (+ (+ (+ (* (- 6.0) |v16:1|) (* 7.0 ?x3669)) (* ?x8355 ?x5679)) (* ?x7468 |v13:4|))))
 (let (($x8410 (or (<= (+ (+ (+ ?x7010 ?x2196) (* 9.0 |v13:4|)) ?x409) ?x7468) (or $x6691 $x592))))
 (let ((?x5187 (- 6.0)))
 (let ((?x7386 (* 9.0 ?x3669)))
 (let ((?x5682 (* 7.0 ?x2701)))
 (let ((?x3775 (- 16.0)))
 (let ((?x3977 (* ?x3775 |v2:15|)))
 (let ((?x1265 (* 14.0 |v4:13|)))
 (let ((?x4515 (+ (+ (+ (+ (* 0.0 |v14:3|) (* 19.0 |v12:5|)) (* 17.0 |v13:4|)) ?x1265) ?x3977)))
 (let ((?x7030 (* ?x7122 ?x2701)))
 (let ((?x6121 (* 13.0 |v17:0|)))
 (let ((?x4383 (* ?x9179 ?x4856)))
 (let ((?x4372 (+ (+ (+ (+ (* 14.0 |v13:4|) (* 8.0 |v4:13|)) (* ?x9308 |v14:3|)) ?x4383) (* ?x2540 |v17:0|))))
 (let (($x4547 (or (<= (+ (+ ?x4372 ?x6121) ?x7030) 14.0) (<= (+ (+ ?x4515 ?x5682) ?x7386) ?x5187))))
 (let ((?x8427 (* 8.0 |v17:0|)))
 (let ((?x9024 (* 18.0 |v3:14|)))
 (let ((?x7925 (- 3.0)))
 (let ((?x910 (* ?x7925 |v1:16|)))
 (let ((?x8450 (+ (+ (+ (+ (+ (* 18.0 ?x2701) ?x409) ?x8857) (* ?x6059 |v4:13|)) ?x910) ?x9024)))
 (let ((?x7613 (* 19.0 |v5:12|)))
 (let ((?x3456 (* 11.0 ?x439)))
 (let ((?x4056 (+ (+ (+ (* ?x8355 |v13:4|) (* 16.0 |v1:16|)) (* ?x6059 |v15:2|)) (* ?x5187 |v17:0|))))
 (let (($x1279 (or (<= (+ (+ (+ ?x4056 ?x3456) (* ?x4592 ?x3669)) ?x7613) ?x9308) (<= (+ ?x8450 ?x8427) ?x5187))))
 (let ((?x2470 (* 7.0 ?x4856)))
 (let ((?x7430 (* ?x1687 ?x3669)))
 (let ((?x8305 (* 0.0 |v1:16|)))
 (let ((?x9401 (* 13.0 |v15:2|)))
 (let ((?x6877 (+ (+ (+ (+ (* 14.0 |v5:12|) (* ?x9566 ?x9214)) (* ?x9308 |v17:0|)) ?x9401) ?x8305)))
 (let (($x6834 (or (or (or (<= (+ (+ ?x6877 ?x7430) ?x2470) ?x6059) (and $x1279 $x4547)) $x8410) (or (and (and $x6514 $x5505) (and $x446 $x5398)) $x7226))))
 (let ((?x5452 (* 8.0 |v12:5|)))
 (let ((?x1612 (+ (+ (+ (+ ?x9214 (* ?x7410 ?x3669)) (* 4.0 ?x2701)) (* ?x3775 |v5:12|)) (* ?x8355 ?x2701))))
 (let ((?x7910 (+ (+ (+ (+ (* 13.0 |v4:13|) (* ?x5537 ?x3669)) ?x4974) (* ?x9566 |v17:0|)) ?x1079)))
 (let (($x3400 (and (<= (+ (+ ?x7910 ?x8124) (* ?x9179 ?x2701)) 13.0) (<= (+ (+ ?x1612 (* ?x6059 ?x439)) ?x5452) 11.0))))
 (let ((?x5338 (* 3.0 |v12:5|)))
 (let ((?x2971 (* ?x3237 ?x4856)))
 (let ((?x6485 (* 8.0 |v15:2|)))
 (let ((?x7977 (+ (+ (+ (+ (* 11.0 ?x4856) (* ?x3812 |v12:5|)) (* ?x9566 |v0:17|)) ?x6485) ?x2971)))
 (let ((?x6558 (* 16.0 ?x5679)))
 (let ((?x8537 (* 17.0 ?x9214)))
 (let ((?x8465 (* ?x7122 |v2:15|)))
 (let ((?x3862 (+ (+ (+ (+ (* 15.0 |v2:15|) (* ?x7122 ?x5679)) (* 20.0 |v4:13|)) ?x8465) ?x8537)))
 (let (($x2933 (and (<= (+ (+ ?x3862 ?x6558) ?x7092) 7.0) (<= (+ (+ ?x7977 (* 14.0 ?x9214)) ?x5338) 7.0))))
 (let ((?x2320 (* ?x8355 |v0:17|)))
 (let ((?x5373 (+ (+ (+ (* ?x6156 ?x3669) (* 8.0 |v3:14|)) (* 7.0 ?x5679)) (* 13.0 ?x5679))))
 (let ((?x5467 (* ?x4592 |v2:15|)))
 (let ((?x8415 (+ (+ (+ (+ ?x4107 (* 10.0 ?x9214)) (* ?x5187 ?x439)) (* ?x5187 ?x4856)) ?x7030)))
 (let ((?x7724 (* ?x286 |v2:15|)))
 (let ((?x4441 (* 3.0 |v4:13|)))
 (let ((?x3927 (+ (+ (+ (+ (* ?x2540 |v0:17|) (* ?x4592 |v13:4|)) (* ?x9566 |v14:3|)) ?x4441) (* ?x4592 ?x2701))))
 (let (($x5738 (and (<= (+ (+ ?x3927 ?x7724) (* ?x7410 |v13:4|)) 18.0) (<= (+ (+ ?x8415 ?x5467) ?x4856) ?x7122))))
 (let (($x8446 (or (or $x5738 (<= (+ (+ (+ ?x5373 (* 9.0 ?x9214)) ?x1079) ?x2320) ?x7122)) (or $x2933 $x3400))))
 (let ((?x384 (* 0.0 |v12:5|)))
 (let ((?x8647 (+ (+ (+ (+ (* ?x1687 |v1:16|) ?x4974) (* 9.0 |v12:5|)) (* ?x9566 ?x9214)) ?x384)))
 (let ((?x6405 (* 4.0 ?x5679)))
 (let ((?x4906 (* 19.0 |v1:16|)))
 (let ((?x8152 (+ (+ (+ (+ (+ (* 16.0 |v1:16|) ?x6733) ?x3456) (* 16.0 |v13:4|)) ?x7430) ?x4906)))
 (let (($x4724 (or (<= (+ ?x8152 ?x6405) 13.0) (<= (+ (+ ?x8647 (* ?x286 ?x3669)) ?x6733) ?x7925))))
 (let ((?x8583 (* ?x8355 |v13:4|)))
 (let ((?x4030 (* 10.0 ?x2701)))
 (let ((?x7214 (* ?x7410 |v3:14|)))
 (let ((?x2817 (* 5.0 |v3:14|)))
 (let ((?x9718 (+ (+ (+ (+ (* ?x5187 |v3:14|) (* ?x8355 ?x5679)) (* ?x7925 |v12:5|)) ?x2817) ?x7214)))
 (let ((?x8439 (* ?x7925 |v2:15|)))
 (let ((?x1160 (+ (+ (+ (+ (+ ?x3456 (* 12.0 |v5:12|)) ?x5338) ?x4030) (* 8.0 ?x4856)) ?x8439)))
 (let (($x8814 (and (and (<= (+ ?x1160 ?x2196) 10.0) (<= (+ (+ ?x9718 ?x4030) ?x8583) 2.0)) $x4724)))
 (let ((?x8561 (* 20.0 |v13:4|)))
 (let ((?x4170 (* 10.0 |v0:17|)))
 (let ((?x2165 (* 20.0 ?x439)))
 (let ((?x7421 (+ (+ (+ (+ (+ (* 18.0 ?x439) ?x1603) (* ?x3237 ?x439)) |v13:4|) ?x2165) ?x4170)))
 (let ((?x2080 (* ?x5537 |v0:17|)))
 (let ((?x924 (* 12.0 ?x439)))
 (let ((?x6089 (+ (+ (+ (+ (* 3.0 ?x3669) (* ?x4592 |v17:0|)) (* ?x5537 |v17:0|)) ?x924) ?x5553)))
 (let ((?x7670 (* ?x3312 |v2:15|)))
 (let ((?x8290 (* ?x9308 |v2:15|)))
 (let ((?x5288 (+ (+ (+ (+ (* 9.0 ?x439) ?x4185) (* 17.0 ?x4856)) (* ?x2540 |v5:12|)) (* 15.0 ?x4856))))
 (let ((?x1511 (* ?x6059 ?x2701)))
 (let ((?x4513 (* 7.0 |v2:15|)))
 (let ((?x6095 (+ (+ (+ (+ (+ (+ (* 6.0 |v14:3|) ?x2165) ?x721) ?x5467) ?x7540) ?x4513) ?x1511)))
 (let (($x7084 (and (or (<= ?x6095 6.0) (<= (+ (+ ?x5288 ?x8290) ?x7670) 11.0)) (or (<= (+ (+ ?x6089 ?x587) ?x2080) 11.0) (<= (+ ?x7421 ?x8561) 0.0)))))
 (let ((?x4901 (* 14.0 ?x439)))
 (let ((?x6618 (* ?x7468 |v2:15|)))
 (let ((?x3421 (* 0.0 ?x439)))
 (let ((?x1260 (+ (+ (+ (+ (* ?x7925 ?x4856) (* 15.0 |v15:2|)) (* 18.0 ?x2701)) ?x5679) ?x3421)))
 (let ((?x2836 (+ (+ (+ (+ (* ?x5187 ?x439) (* 10.0 ?x439)) (* 6.0 |v16:1|)) ?x6454) (* ?x7122 |v15:2|))))
 (let (($x239 (or (<= (+ (+ ?x2836 ?x8537) (* ?x3237 ?x5679)) ?x3775) (<= (+ (+ ?x1260 ?x6618) ?x4901) ?x3775))))
 (let ((?x7179 (* 7.0 |v17:0|)))
 (let ((?x1710 (* 5.0 |v14:3|)))
 (let ((?x7450 (* ?x6059 |v3:14|)))
 (let ((?x8897 (+ (+ (+ (+ (+ (* 20.0 ?x5679) ?x5622) ?x8465) (* 19.0 ?x2701)) ?x7450) ?x1710)))
 (let ((?x8713 (* 10.0 |v3:14|)))
 (let ((?x8977 (* 2.0 ?x4856)))
 (let ((?x7690 (* 9.0 |v14:3|)))
 (let ((?x4763 (+ (+ (+ (+ (* ?x6059 |v16:1|) (* ?x2540 |v14:3|)) (* 10.0 ?x4856)) ?x7690) ?x8977)))
 (let (($x291 (and (<= (+ (+ ?x4763 ?x8713) (* ?x6156 |v15:2|)) 15.0) (<= (+ ?x8897 ?x7179) ?x5187))))
 (let ((?x2614 (* 11.0 ?x3669)))
 (let ((?x1601 (* ?x286 |v5:12|)))
 (let ((?x7280 (* 13.0 |v13:4|)))
 (let ((?x5547 (+ (+ (+ (+ (+ |v12:5| (* ?x7122 |v17:0|)) (* 13.0 ?x4856)) |v4:13|) ?x7280) ?x1601)))
 (let ((?x4776 (* ?x8355 |v14:3|)))
 (let ((?x1690 (* 9.0 |v16:1|)))
 (let ((?x1530 (* 2.0 ?x2701)))
 (let ((?x7361 (+ (+ (+ (+ (* ?x8355 |v1:16|) (* 16.0 |v12:5|)) ?x8561) (* 4.0 ?x439)) ?x1530)))
 (let ((?x1645 (* ?x3237 ?x3669)))
 (let ((?x1456 (* 17.0 |v15:2|)))
 (let ((?x138 (+ (+ (+ (+ (+ ?x4086 ?x9214) (* 8.0 |v3:14|)) (* ?x3312 |v4:13|)) ?x1456) ?x8561)))
 (let ((?x7740 (* 12.0 |v4:13|)))
 (let ((?x4705 (* ?x7122 ?x3669)))
 (let ((?x9496 (* 4.0 |v1:16|)))
 (let ((?x371 (+ (+ (+ (+ (+ ?x6485 ?x7740) (* ?x6156 |v2:15|)) (* ?x3237 ?x9214)) ?x9496) ?x4705)))
 (let (($x625 (and (and (<= (+ ?x371 ?x7740) ?x7410) (<= (+ ?x138 ?x1645) ?x7122)) (or (<= (+ (+ ?x7361 ?x1690) ?x4776) ?x7122) (<= (+ ?x5547 ?x2614) ?x7468)))))
 (let ((?x9221 (* ?x9179 |v4:13|)))
 (let ((?x7843 (+ (+ (+ (+ (+ (+ (* ?x286 |v1:16|) ?x6831) ?x7316) ?x4383) ?x4902) ?x9221) ?x8465)))
 (let ((?x6183 (* 6.0 |v14:3|)))
 (let ((?x647 (* 5.0 ?x439)))
 (let ((?x3740 (+ (+ (+ (+ ?x8412 (* ?x5187 |v14:3|)) (* ?x9179 |v15:2|)) (* ?x5187 |v4:13|)) ?x647)))
 (let ((?x3092 (* 6.0 ?x4856)))
 (let ((?x2045 (* 13.0 |v1:16|)))
 (let ((?x4388 (* ?x3812 |v16:1|)))
 (let ((?x5365 (+ (+ (+ (+ (* ?x3812 |v1:16|) (* ?x6156 |v17:0|)) (* 15.0 |v1:16|)) ?x4388) ?x2045)))
 (let ((?x7283 (* ?x7925 |v4:13|)))
 (let ((?x7581 (* ?x7468 |v1:16|)))
 (let ((?x844 (* 17.0 ?x3669)))
 (let ((?x735 (+ (+ (+ (+ (+ (* ?x3812 |v17:0|) (* ?x3237 ?x2701)) ?x7724) ?x4901) ?x844) ?x7581)))
 (let (($x8014 (and (<= (+ ?x735 ?x7283) ?x3812) (<= (+ (+ ?x5365 ?x3092) (* 12.0 |v16:1|)) ?x6059))))
 (let (($x8933 (or $x8014 (and (<= (+ (+ ?x3740 (* ?x7468 |v17:0|)) ?x6183) 12.0) (<= ?x7843 20.0)))))
 (let ((?x262 (* 13.0 |v2:15|)))
 (let ((?x7159 (* ?x7122 |v17:0|)))
 (let ((?x7937 (* 11.0 |v3:14|)))
 (let ((?x4869 (+ (+ (+ (+ (+ ?x4086 ?x5622) (* 11.0 |v0:17|)) (* ?x4592 ?x9214)) ?x7937) ?x7159)))
 (let ((?x9521 (* ?x286 ?x9214)))
 (let ((?x3264 (* 9.0 ?x5679)))
 (let ((?x2946 (* 6.0 |v2:15|)))
 (let ((?x767 (+ (+ (+ (+ (* 6.0 |v3:14|) (* ?x2540 |v16:1|)) (* ?x3237 |v13:4|)) ?x2946) ?x3264)))
 (let ((?x1571 (+ (+ (+ (* ?x7122 |v1:16|) (* 6.0 |v1:16|)) (* ?x286 |v3:14|)) ?x8495)))
 (let (($x2254 (or (<= (+ (+ (+ ?x1571 (* ?x6059 ?x5679)) ?x7740) (* ?x3237 |v12:5|)) ?x7410) (<= (+ (+ ?x767 ?x9521) ?x4030) 5.0))))
 (let (($x993 (and (and (or $x2254 (<= (+ ?x4869 ?x262) ?x3775)) $x8933) (or $x625 (and $x291 $x239)))))
 (let ((?x8554 (* 3.0 |v15:2|)))
 (let ((?x7919 (* ?x5537 |v15:2|)))
 (let ((?x3480 (+ (+ (+ (+ ?x7585 ?x7919) (* 8.0 |v0:17|)) (* 12.0 |v2:15|)) (* ?x286 |v15:2|))))
 (let ((?x1541 (* 5.0 |v4:13|)))
 (let ((?x9159 (* 15.0 ?x5679)))
 (let ((?x5183 (+ (+ (+ (+ (* ?x9308 |v12:5|) (* 20.0 ?x4856)) ?x5335) (* 8.0 |v1:16|)) ?x6766)))
 (let (($x5857 (or (<= (+ (+ ?x5183 ?x9159) ?x1541) ?x7410) (<= (+ (+ ?x3480 ?x7919) ?x8554) 5.0))))
 (let ((?x8710 (* 11.0 ?x4856)))
 (let ((?x2039 (* ?x5537 |v2:15|)))
 (let ((?x7382 (* 9.0 |v15:2|)))
 (let ((?x8813 (+ (+ (+ (+ ?x7581 (* ?x5187 |v15:2|)) (* ?x7410 |v2:15|)) (* 16.0 |v13:4|)) ?x7382)))
 (let ((?x6003 (* 17.0 ?x2701)))
 (let ((?x5145 (* 13.0 |v16:1|)))
 (let ((?x561 (* 5.0 |v2:15|)))
 (let ((?x5404 (+ (+ (+ (+ (* 17.0 |v2:15|) (* ?x8355 ?x5679)) (* 4.0 |v13:4|)) ?x561) ?x3521)))
 (let (($x7270 (and (<= (+ (+ ?x5404 ?x5145) ?x6003) ?x4592) (<= (+ (+ ?x8813 ?x2039) ?x8710) 8.0))))
 (let ((?x1637 (* 2.0 |v0:17|)))
 (let ((?x8673 (* 8.0 |v1:16|)))
 (let ((?x8605 (* ?x286 |v16:1|)))
 (let ((?x2483 (+ (+ (+ (+ (* 10.0 |v1:16|) (* ?x3812 |v0:17|)) ?x5335) (* ?x7410 |v17:0|)) ?x8605)))
 (let ((?x7957 (* ?x3775 |v1:16|)))
 (let ((?x715 (* 6.0 |v1:16|)))
 (let ((?x5007 (+ (+ (+ (+ (* ?x3812 ?x439) (* ?x4592 |v13:4|)) ?x8977) (* ?x3812 ?x439)) ?x715)))
 (let (($x381 (and (<= (+ (+ ?x5007 (* ?x3775 ?x5679)) ?x7957) 1.0) (<= (+ (+ ?x2483 ?x8673) ?x1637) ?x3775))))
 (let ((?x3630 (* 2.0 ?x3669)))
 (let ((?x2990 (+ (+ (+ (+ (* 0.0 |v13:4|) (* ?x6059 |v17:0|)) (* ?x3237 |v15:2|)) ?x3421) ?x3630)))
 (let (($x3694 (and (or (<= (+ (+ ?x2990 (* ?x2540 |v13:4|)) ?x2470) 12.0) $x381) (and $x7270 $x5857))))
 (let ((?x7617 (* ?x3237 ?x2701)))
 (let ((?x7227 (* ?x5187 |v1:16|)))
 (let ((?x862 (* 10.0 ?x9214)))
 (let ((?x3082 (+ (+ (+ (+ (* 4.0 |v15:2|) (* ?x7925 ?x9214)) (* ?x8355 |v5:12|)) ?x862) (* ?x1687 |v17:0|))))
 (let ((?x8094 (* 14.0 |v14:3|)))
 (let ((?x3705 (+ (+ (+ (+ (+ (* ?x3775 ?x3669) ?x1637) (* ?x6059 ?x4856)) ?x3977) ?x6454) (* ?x1687 |v12:5|))))
 (let ((?x4396 (* 7.0 |v4:13|)))
 (let ((?x2078 (+ (+ (+ (+ (* ?x286 |v12:5|) (* 11.0 |v0:17|)) (* ?x9308 |v0:17|)) ?x5679) ?x4396)))
 (let (($x6625 (and (<= (+ (+ ?x2078 ?x6160) (* ?x2540 ?x5679)) 8.0) (and (<= (+ ?x3705 ?x8094) 17.0) (<= (+ (+ ?x3082 ?x7227) ?x7617) 20.0)))))
 (let ((?x5623 (* 2.0 |v15:2|)))
 (let ((?x8882 (* 13.0 |v12:5|)))
 (let ((?x650 (* ?x6059 |v15:2|)))
 (let ((?x76 (* 17.0 ?x439)))
 (let ((?x4421 (+ (+ (+ (+ (* 13.0 ?x4856) (* 19.0 |v17:0|)) (* ?x9566 ?x4856)) ?x76) ?x650)))
 (let ((?x7154 (* ?x9566 |v0:17|)))
 (let ((?x5983 (* 13.0 ?x9214)))
 (let ((?x6182 (* ?x1687 |v4:13|)))
 (let ((?x3125 (+ (+ (+ (+ (* 7.0 |v15:2|) ?x4906) (* 7.0 |v13:4|)) (* ?x3312 |v15:2|)) ?x6182)))
 (let (($x115 (and (<= (+ (+ ?x3125 ?x5983) ?x7154) ?x7410) (<= (+ (+ ?x4421 ?x8882) ?x5623) ?x5187))))
 (let ((?x5031 (* 9.0 |v2:15|)))
 (let ((?x666 (* 3.0 ?x9214)))
 (let ((?x2727 (* 7.0 |v3:14|)))
 (let ((?x5846 (+ (+ (+ (+ (* 0.0 |v0:17|) (* ?x9566 ?x5679)) ?x2165) (* ?x3312 ?x4856)) ?x2727)))
 (let ((?x8411 (* ?x6059 |v5:12|)))
 (let ((?x3543 (* ?x7410 ?x4856)))
 (let ((?x8286 (+ (+ (+ (+ (* 10.0 |v17:0|) ?x4388) (* 7.0 |v5:12|)) ?x4705) (* ?x3312 ?x2701))))
 (let (($x6391 (or (<= (+ (+ ?x8286 ?x3543) ?x8411) 3.0) (<= (+ (+ ?x5846 ?x666) ?x5031) 12.0))))
 (let ((?x2489 (* ?x5187 |v14:3|)))
 (let ((?x7924 (* 20.0 |v4:13|)))
 (let ((?x6299 (+ (+ (+ (+ (+ (* ?x7468 ?x2701) (* ?x3312 |v3:14|)) ?x1645) ?x6766) ?x7924) ?x327)))
 (let ((?x2370 (* 9.0 ?x439)))
 (let ((?x8761 (* ?x7925 |v5:12|)))
 (let ((?x4066 (* ?x3775 |v4:13|)))
 (let ((?x8468 (+ (+ (+ (+ (* 2.0 ?x439) (* 2.0 |v1:16|)) (* ?x3312 |v12:5|)) ?x4066) ?x8761)))
 (let (($x5196 (and (and (<= (+ (+ ?x8468 ?x2370) |v16:1|) 5.0) (<= (+ ?x6299 ?x2489) 10.0)) $x6391)))
 (let ((?x7781 (* 17.0 |v4:13|)))
 (let ((?x5093 (* ?x286 |v3:14|)))
 (let ((?x8536 (* ?x9179 |v5:12|)))
 (let ((?x1154 (+ (+ (+ (+ (* 4.0 ?x439) (* ?x5537 |v5:12|)) (* 6.0 |v4:13|)) ?x8536) ?x8882)))
 (let ((?x2289 (* 7.0 |v1:16|)))
 (let ((?x1470 (+ (+ (+ (+ (* 4.0 |v12:5|) (* ?x7468 |v0:17|)) ?x8605) (* 4.0 |v13:4|)) ?x4902)))
 (let (($x2824 (and (<= (+ (+ ?x1470 ?x2289) ?x6003) 8.0) (<= (+ (+ ?x1154 ?x5093) ?x7781) 5.0))))
 (let ((?x7015 (* ?x9179 |v0:17|)))
 (let ((?x6648 (* ?x7122 |v14:3|)))
 (let ((?x4814 (+ (+ (+ (* 5.0 ?x5679) (* ?x7468 |v3:14|)) (* ?x6156 |v1:16|)) (* 3.0 |v14:3|))))
 (let ((?x207 (* ?x9566 ?x4856)))
 (let ((?x5456 (* 14.0 |v5:12|)))
 (let ((?x3482 (* 0.0 |v5:12|)))
 (let ((?x5385 (+ (+ (+ (+ (* ?x5537 |v3:14|) (* 7.0 ?x9214)) (* ?x3237 |v4:13|)) ?x3977) ?x3482)))
 (let (($x2312 (and (<= (+ (+ ?x5385 ?x5456) ?x207) ?x3237) (<= (+ (+ (+ ?x4814 ?x6648) ?x7015) ?x5452) ?x9308))))
 (let ((?x8131 (* ?x8355 |v15:2|)))
 (let ((?x6370 (* ?x3312 ?x4856)))
 (let ((?x7405 (+ (+ (+ (+ (+ (+ ?x7613 ?x1541) (* ?x5187 |v15:2|)) ?x1511) ?x8305) ?x6370) ?x8131)))
 (let ((?x3193 (* 18.0 |v15:2|)))
 (let ((?x5828 (+ (+ (+ (+ (+ ?x2039 |v5:12|) (* ?x3312 |v4:13|)) ?x8427) (* ?x4592 |v3:14|)) ?x3193)))
 (let ((?x6292 (* 12.0 ?x2701)))
 (let ((?x4426 (+ (+ (+ (+ (* ?x6156 |v16:1|) (* ?x3312 ?x9214)) (* ?x3775 |v16:1|)) ?x4705) (* ?x2540 ?x2701))))
 (let (($x8949 (or (and (<= (+ (+ ?x4426 ?x8134) ?x6292) 19.0) (<= (+ ?x5828 ?x9401) ?x7122)) (<= ?x7405 ?x3312))))
 (let ((?x5965 (* 16.0 |v12:5|)))
 (let ((?x6587 (+ (+ (+ (+ (+ ?x4825 ?x3193) (* 3.0 |v1:16|)) ?x5623) (* ?x3312 |v0:17|)) ?x8131)))
 (let ((?x5368 (* ?x5187 ?x439)))
 (let ((?x7198 (+ (+ (+ (+ ?x8882 (* 19.0 |v12:5|)) (* ?x7410 |v12:5|)) (* ?x9179 |v2:15|)) ?x5368)))
 (let (($x484 (and (<= (+ (+ ?x7198 (* ?x3312 |v13:4|)) (* ?x9308 |v15:2|)) ?x4592) (<= (+ ?x6587 ?x5965) ?x3312))))
 (let ((?x3742 (* 18.0 ?x439)))
 (let ((?x544 (+ (+ (+ (+ ?x8427 (* ?x6059 ?x4856)) (* ?x5187 ?x4856)) (* ?x9308 ?x439)) ?x7450)))
 (let (($x520 (and (or (and (<= (+ (+ ?x544 ?x3742) ?x8554) ?x3237) $x484) $x8949) (or (or $x2312 $x2824) $x5196))))
 (let ((?x7709 (* 16.0 |v2:15|)))
 (let ((?x7818 (* ?x4592 |v5:12|)))
 (let ((?x3675 (+ (+ (+ (+ (+ (* 20.0 ?x3669) ?x4185) ?x8131) ?x384) (* 9.0 |v3:14|)) ?x7818)))
 (let ((?x8175 (* 9.0 |v0:17|)))
 (let ((?x7544 (+ (+ (+ (+ (* 16.0 |v5:12|) (* 12.0 |v15:2|)) ?x8134) (* ?x7468 |v3:14|)) ?x7015)))
 (let ((?x9235 (* 14.0 |v2:15|)))
 (let ((?x8069 (* 11.0 |v16:1|)))
 (let ((?x7838 (+ (+ (+ (+ (+ ?x9521 ?x6648) (* 12.0 |v1:16|)) (* ?x3812 |v12:5|)) ?x8069) (* ?x7468 ?x9214))))
 (let (($x8350 (and (<= (+ ?x7838 ?x9235) 7.0) (<= (+ (+ ?x7544 (* ?x3775 ?x2701)) ?x8175) 10.0))))
 (let ((?x6978 (* 18.0 ?x2701)))
 (let ((?x3825 (* 10.0 ?x439)))
 (let ((?x4563 (* ?x9179 |v2:15|)))
 (let ((?x3518 (+ (+ (+ (+ (+ (* ?x6059 ?x9214) ?x3521) ?x7015) (* ?x1687 |v5:12|)) ?x4563) ?x3825)))
 (let ((?x5322 (* 14.0 |v0:17|)))
 (let ((?x9493 (* ?x7122 |v0:17|)))
 (let ((?x7101 (+ (+ (+ (+ (+ ?x7690 ?x4170) (* ?x7468 ?x439)) ?x7154) (* ?x6059 |v12:5|)) ?x9493)))
 (let ((?x1523 (* 17.0 |v0:17|)))
 (let ((?x6261 (* 5.0 |v13:4|)))
 (let ((?x4632 (+ (+ (+ (+ (* 12.0 |v2:15|) (* ?x3812 ?x9214)) (* 17.0 |v14:3|)) ?x6261) ?x1523)))
 (let ((?x6335 (* ?x7925 ?x3669)))
 (let ((?x2459 (* 6.0 |v15:2|)))
 (let ((?x8902 (+ (+ (+ (+ (* ?x1687 |v14:3|) (* ?x7122 |v3:14|)) ?x76) (* ?x286 ?x2701)) ?x2459)))
 (let (($x6998 (and (<= (+ (+ ?x8902 ?x6335) ?x6121) ?x9308) (<= (+ (+ ?x4632 ?x6485) (* 0.0 ?x4856)) 3.0))))
 (let ((?x8270 (* 3.0 |v17:0|)))
 (let ((?x356 (* 8.0 ?x439)))
 (let ((?x6847 (+ (+ (+ (+ (* 4.0 ?x3669) (* ?x286 |v4:13|)) ?x5965) (* 19.0 |v12:5|)) ?x356)))
 (let ((?x6912 (+ (+ (+ (+ (* ?x3775 |v3:14|) |v0:17|) (* ?x9566 ?x2701)) (* 0.0 |v16:1|)) (* ?x6156 ?x5679))))
 (let (($x5761 (or (<= (+ (+ ?x6912 (* ?x9308 ?x3669)) ?x6501) 19.0) (<= (+ (+ ?x6847 ?x8270) ?x4776) ?x8355))))
 (let (($x829 (and (and $x5761 $x6998) (or (or (<= (+ ?x7101 ?x5322) 14.0) (<= (+ ?x3518 ?x6978) ?x7468)) $x8350))))
 (let ((?x1883 (* ?x5537 |v5:12|)))
 (let ((?x5343 (+ (+ (+ (+ (+ |v3:14| ?x1456) (* ?x7122 ?x4856)) (* 8.0 |v14:3|)) ?x1883) ?x9159)))
 (let ((?x6222 (+ (+ (+ (+ (+ (* ?x3312 |v15:2|) ?x5335) ?x4901) ?x2442) (* 18.0 |v14:3|)) |v1:16|)))
 (let ((?x295 (* ?x3775 |v5:12|)))
 (let ((?x5603 (* 19.0 ?x5679)))
 (let ((?x2654 (* ?x3812 |v3:14|)))
 (let ((?x8441 (+ (+ (+ (+ (* ?x6156 ?x2701) (* ?x6156 |v0:17|)) (* 12.0 |v12:5|)) ?x2654) ?x5603)))
 (let (($x2369 (and (<= (+ (+ ?x8441 ?x295) ?x5682) ?x3237) (and (<= (+ ?x6222 ?x1690) 9.0) (<= (+ ?x5343 (* ?x286 ?x4856)) ?x9308)))))
 (let ((?x7052 (* 20.0 |v5:12|)))
 (let ((?x7658 (+ (+ (+ (+ (* 17.0 |v2:15|) (* 4.0 ?x439)) ?x910) (* ?x9308 ?x4856)) ?x2039)))
 (let ((?x8687 (* ?x4592 ?x9214)))
 (let ((?x6430 (* ?x2540 |v15:2|)))
 (let ((?x4700 (+ (+ (+ (+ ?x6648 (* 5.0 |v17:0|)) (* ?x7925 ?x2701)) (* ?x3775 |v17:0|)) ?x6430)))
 (let (($x2244 (and (<= (+ (+ ?x4700 ?x8687) ?x2370) ?x3775) (<= (+ (+ ?x7658 ?x2489) ?x7052) ?x7122))))
 (let ((?x6235 (* ?x9308 |v1:16|)))
 (let ((?x1054 (* ?x6059 |v17:0|)))
 (let ((?x7545 (+ (+ (+ (+ (+ (* ?x3775 |v3:14|) ?x1876) ?x2971) (* ?x5187 |v4:13|)) ?x1054) (* ?x5537 ?x439))))
 (let ((?x6212 (* 12.0 |v5:12|)))
 (let ((?x1918 (+ (+ (+ (+ (* ?x3312 |v15:2|) (* ?x5537 |v4:13|)) (* 0.0 ?x5679)) ?x6121) ?x3543)))
 (let (($x3225 (and (<= (+ (+ ?x1918 ?x6212) (* 11.0 ?x5679)) 10.0) (<= (+ ?x7545 ?x6235) 3.0))))
 (let (($x110 (or (and (or (or (or $x3225 $x2244) $x2369) $x829) (<= (+ ?x3675 ?x7709) ?x7410)) (and $x520 (and (or $x115 $x6625) $x3694)))))
 (let (($x4184 (not (= |v6:11_st| (RMk1 val!10253)))))
 (let (($x3947 (not (= |v7:10_st| (RMk1 val!10252)))))
 (let (($x3746 (not (= |v8:9_st| (RMk1 val!10251)))))
 (let (($x3505 (not (= |v9:8_st| (RMk1 val!10250)))))
 (let (($x1202 (not (= |v10:7_st| (RMk1 val!10249)))))
 (let (($x2351 (not (= |v11:6_st| (RMk1 val!10248)))))
 (and $x2351 $x1202 $x3505 $x3746 $x3947 $x4184 (or $x110 (or (or $x993 (or (or $x7084 $x8814) $x8446)) $x6834))))))))))))))))))))))))))))))))))))))))))))))))))))))))))))))))))))))))))))))))))))))))))))))))))))))))))))))))))))))))))))))))))))))))))))))))))))))))))))))))))))))))))))))))))))))))))))))))))))))))))))))))))))))))))))))))))))))))))))))))))))))))))))))))))))))))))))))))))))))))))))))))))))))))))))))))))))))))))))))))))))))))))))))))))))))))))))))))))))))))))))))))))))))))))))))))))))))))))))
 )
 )
 )
 )
 )
 )
 )
 )
 )
 )
 )
 )
 )
 )
 )
 )
 )
 )
(check-sat)
